% seed = 0

mint = 25;
% maxt = 134;

nActs = 62;
dur = [0,2,2,3,4,1,3,1,1,3,2,1,1,3,2,2,2,4,2,2,1,4,2,1,3,2,1,1,3,1,1,1,1,3,2,2,5,4,1,3,4,1,4,1,2,2,5,3,1,2,1,2,2,2,4,1,2,4,4,2,2,0];

nSkills = 15;
sreq = [| 0,0,0,0,0,0,0,0,0,0,0,0,0,0,0,
	| 0,0,0,0,0,1,0,0,0,0,0,1,0,1,0,
	| 0,1,0,0,0,1,0,0,2,0,0,0,0,0,0,
	| 0,0,0,0,0,2,0,0,2,0,0,0,0,1,2,
	| 0,0,0,1,0,1,0,0,1,0,1,0,0,2,0,
	| 0,0,0,0,0,1,0,0,2,1,0,0,0,1,1,
	| 0,0,0,1,0,2,0,0,0,0,0,1,0,1,1,
	| 0,0,1,0,1,2,1,0,1,0,0,0,0,0,1,
	| 0,0,0,1,0,2,0,0,0,0,0,0,0,1,0,
	| 1,0,0,1,2,0,0,0,1,0,0,0,0,0,1,
	| 0,0,1,0,0,1,0,0,0,0,0,0,0,0,0,
	| 0,0,1,1,1,1,0,0,1,0,0,0,0,1,0,
	| 0,0,0,0,1,0,0,0,0,0,0,0,0,1,1,
	| 0,1,1,0,0,1,0,0,1,0,0,0,1,1,1,
	| 0,0,0,1,1,1,0,0,0,0,0,1,0,1,1,
	| 0,0,0,0,0,1,0,0,1,0,0,0,0,0,0,
	| 0,0,0,1,0,2,1,0,0,1,0,0,0,0,0,
	| 0,1,0,0,2,0,0,1,2,1,0,0,0,0,0,
	| 0,0,1,1,0,1,0,0,0,0,0,1,1,2,0,
	| 0,0,0,0,0,0,0,0,0,0,0,1,0,0,0,
	| 0,0,0,0,0,2,0,0,0,0,0,0,0,1,1,
	| 0,0,0,0,1,0,0,0,1,0,0,1,1,0,0,
	| 0,0,0,0,0,2,0,0,0,0,0,0,0,1,0,
	| 0,1,1,0,1,2,0,1,0,0,0,1,0,0,1,
	| 0,0,0,0,0,0,0,0,0,0,1,0,0,0,0,
	| 0,0,0,0,1,0,0,0,0,0,0,0,0,0,0,
	| 0,0,0,0,0,0,0,0,0,1,1,0,0,0,1,
	| 0,0,1,0,1,3,0,0,0,0,0,0,0,1,1,
	| 1,0,1,0,0,1,0,0,0,0,0,1,0,0,0,
	| 0,0,1,0,0,1,1,0,0,0,0,0,0,0,0,
	| 0,0,0,1,0,1,0,0,0,0,0,1,0,0,0,
	| 0,0,2,0,1,1,0,0,0,0,0,0,0,0,0,
	| 0,0,0,0,0,1,0,0,0,0,0,0,0,0,0,
	| 0,0,0,0,1,0,0,0,0,0,0,0,0,0,0,
	| 0,0,0,2,0,0,0,0,1,0,0,0,0,1,0,
	| 0,0,1,0,1,0,0,0,0,0,0,0,0,0,0,
	| 0,0,0,0,0,1,1,0,0,0,0,1,0,1,1,
	| 0,0,0,0,0,0,0,0,0,0,0,0,0,2,0,
	| 1,1,0,0,0,0,0,0,0,0,0,0,0,0,0,
	| 0,0,0,0,1,0,0,0,0,0,0,0,1,0,0,
	| 0,0,0,0,0,1,0,0,1,0,0,1,0,0,1,
	| 1,0,0,0,1,1,0,1,0,0,0,0,0,1,2,
	| 0,0,0,0,1,2,0,0,0,0,0,1,1,1,0,
	| 0,0,1,0,0,0,0,0,2,0,0,0,0,1,0,
	| 0,0,0,0,2,2,0,0,1,0,0,0,0,1,1,
	| 0,0,0,0,1,1,0,0,0,0,0,1,0,0,0,
	| 0,1,0,0,1,1,0,1,0,0,0,0,1,0,1,
	| 0,0,0,1,1,2,0,0,0,0,0,0,0,2,1,
	| 0,0,0,0,0,0,0,0,0,0,0,0,0,0,1,
	| 0,1,0,0,0,1,0,1,0,0,0,1,1,1,1,
	| 0,0,0,0,1,0,0,0,0,0,0,0,0,1,0,
	| 0,0,0,0,1,2,0,0,1,0,0,0,0,0,1,
	| 0,0,1,0,3,1,0,0,2,0,0,0,0,1,0,
	| 0,1,0,1,2,0,0,0,0,0,0,0,0,1,1,
	| 0,0,1,0,1,0,0,1,0,0,0,0,0,0,1,
	| 0,1,0,0,0,1,0,0,1,0,0,0,0,0,0,
	| 0,0,0,1,2,0,0,0,2,1,0,0,1,0,1,
	| 0,0,0,1,0,0,0,1,1,0,0,0,0,1,0,
	| 0,0,0,1,0,0,1,0,0,0,0,0,0,0,0,
	| 0,0,1,1,0,1,0,0,1,1,0,0,0,1,0,
	| 0,0,0,0,1,2,0,1,1,0,0,1,1,0,0,
	| 0,0,0,0,0,0,0,0,0,0,0,0,0,0,0, |];

% SumOfsreq = 266;

nResources = 24;
mastery = [| false,false,false,false,false,true,false,false,false,false,false,false,false,false,false,
	| true,true,true,false,false,false,false,false,false,true,true,true,false,false,false,
	| false,false,false,true,true,true,false,false,false,false,false,false,false,false,false,
	| false,false,false,false,false,false,false,false,true,false,false,false,false,false,false,
	| false,false,false,false,false,false,false,false,false,false,false,true,false,false,false,
	| false,false,false,false,true,true,false,false,false,false,false,false,false,false,false,
	| false,false,false,false,false,true,false,false,false,false,false,false,false,false,false,
	| false,false,false,false,false,false,false,false,false,false,false,false,false,false,true,
	| false,false,false,true,true,true,false,false,false,false,false,false,false,false,false,
	| false,false,false,false,true,true,false,false,false,false,false,false,true,true,true,
	| false,false,false,false,false,false,false,false,false,false,false,false,true,true,true,
	| false,false,false,false,false,false,false,false,false,false,false,false,false,false,true,
	| false,false,false,true,true,true,true,true,true,false,false,false,false,false,true,
	| false,false,false,true,true,true,false,false,false,false,false,false,false,false,false,
	| false,true,true,false,false,false,true,true,true,false,true,true,false,false,false,
	| false,false,false,false,false,false,false,false,false,false,false,false,false,true,true,
	| false,false,true,false,false,false,false,false,false,false,false,false,false,false,false,
	| false,false,false,false,false,false,false,false,true,false,false,false,false,false,false,
	| false,false,false,false,false,false,false,false,false,false,false,false,true,true,true,
	| false,false,false,false,true,true,false,false,false,false,false,false,false,false,false,
	| false,true,true,false,false,false,false,false,false,false,false,false,false,false,false,
	| false,false,false,false,true,true,false,false,false,false,false,false,false,false,false,
	| false,false,false,false,false,false,true,true,true,false,false,false,false,false,false,
	| false,false,false,false,true,true,false,false,false,false,false,false,false,false,false, |];

nPrecs = 131;
pred = [1,1,1,2,2,2,3,3,3,4,4,4,5,5,5,6,6,6,7,7,7,8,8,8,9,9,9,10,10,10,11,11,11,12,12,12,13,13,14,14,14,15,15,16,16,16,17,18,18,19,19,19,20,20,20,21,21,22,22,22,23,23,23,24,24,24,25,25,25,26,26,27,27,28,29,29,30,30,31,31,32,32,33,33,33,34,34,34,35,35,35,36,36,36,37,37,37,38,39,39,39,40,41,42,42,42,43,43,44,45,46,46,47,48,48,49,49,50,50,51,51,52,53,54,55,56,57,58,59,60,61];
succ = [2,3,4,12,31,8,5,6,16,35,37,7,9,31,32,10,45,18,9,17,14,28,21,23,57,11,24,13,22,30,36,30,46,21,55,15,17,37,42,38,24,18,19,28,59,20,34,27,28,27,29,48,43,53,32,36,38,26,43,31,25,27,29,26,44,29,40,46,32,41,46,49,37,48,36,47,33,50,33,35,44,47,42,51,39,57,42,38,41,51,39,41,50,54,53,54,40,39,49,53,40,61,58,49,52,47,51,48,45,55,50,52,56,57,60,59,56,59,56,52,54,55,58,58,61,60,61,60,62,62,62];

nUnrels = 960;
unpred = [2,2,2,2,2,2,2,2,2,2,2,2,2,2,2,2,2,2,2,3,3,3,3,3,3,3,3,3,3,4,4,4,4,4,4,4,4,4,4,4,4,4,4,4,4,4,4,4,4,4,5,5,5,5,5,5,5,5,5,5,5,5,5,5,5,5,5,5,5,5,5,5,5,5,6,6,6,6,6,6,6,6,6,6,6,6,6,6,6,6,6,6,7,7,7,7,7,7,7,7,7,7,7,7,7,7,7,7,7,7,7,7,7,8,8,8,8,8,8,8,8,8,8,8,8,8,8,8,8,8,8,8,8,8,8,8,9,9,9,9,9,9,9,9,9,9,9,9,9,9,9,9,9,9,9,9,9,9,9,9,10,10,10,10,10,10,10,10,10,10,10,10,10,10,10,10,10,10,10,11,11,11,11,11,11,11,11,11,11,11,11,11,11,11,11,11,11,11,11,11,11,11,11,11,11,11,11,11,12,12,12,12,12,12,12,12,12,12,12,12,12,12,12,12,12,12,12,12,12,12,12,13,13,13,13,13,13,13,13,13,13,13,13,13,13,13,13,13,13,13,13,13,13,13,13,13,13,13,13,13,14,14,14,14,14,14,14,14,14,14,14,14,14,14,14,14,14,14,14,14,14,14,14,15,15,15,15,15,15,15,15,15,15,15,15,15,15,15,15,15,15,15,15,15,15,15,15,15,16,16,16,16,16,16,16,16,16,16,16,16,16,16,16,16,16,16,16,16,16,16,16,16,16,16,17,17,17,17,17,17,17,17,17,17,17,17,17,17,17,17,17,17,17,17,17,17,17,17,17,17,17,17,18,18,18,18,18,18,18,18,18,18,18,18,18,18,18,18,18,18,18,18,18,18,18,18,18,18,18,18,18,19,19,19,19,19,19,19,19,19,19,19,19,19,19,19,19,19,19,19,19,19,19,19,19,20,20,20,20,20,20,20,20,20,20,20,20,20,20,20,20,20,20,20,20,20,20,20,20,20,21,21,21,21,21,21,21,21,21,21,21,21,21,21,21,21,21,21,21,21,21,21,21,21,21,21,22,22,22,22,22,22,22,22,22,22,22,22,22,22,23,23,23,23,23,23,23,23,23,23,23,23,23,23,23,24,24,24,24,24,24,24,24,24,24,24,24,24,24,24,24,24,24,24,24,25,25,25,25,25,25,25,25,25,25,25,25,25,25,25,25,25,25,25,25,25,25,25,26,26,26,26,26,26,26,26,26,26,26,26,26,26,26,26,26,26,26,26,26,26,26,26,26,27,27,27,27,27,27,27,27,27,27,27,27,27,27,27,27,27,27,27,27,27,27,27,27,28,28,28,28,28,28,28,28,28,28,28,28,28,28,28,28,28,28,28,28,28,28,28,28,28,28,28,28,28,29,29,29,29,29,29,29,29,29,29,29,29,29,29,29,29,29,29,29,29,29,29,29,30,30,30,30,30,30,30,30,30,30,30,30,30,30,31,31,31,31,31,31,31,31,31,31,31,31,32,32,32,32,32,32,32,32,32,32,32,32,32,32,32,32,32,32,32,32,32,32,33,33,33,33,33,33,33,33,33,33,33,33,33,34,34,34,34,34,34,34,34,34,34,34,34,35,35,35,35,35,35,35,35,35,35,35,35,36,36,36,36,36,36,36,36,36,36,36,36,36,36,36,36,36,36,37,37,37,37,37,37,37,37,37,37,37,37,37,37,37,37,37,37,38,38,38,38,38,38,38,38,38,38,38,38,38,38,39,39,39,39,39,39,39,39,39,39,39,39,39,39,40,40,40,40,40,40,40,40,40,40,40,40,40,40,40,40,40,40,40,40,41,41,41,41,41,41,41,41,41,41,41,41,41,41,41,41,41,41,42,42,42,42,42,42,42,42,42,42,42,43,43,43,43,43,43,43,43,43,44,44,44,44,44,44,44,44,44,44,44,44,44,44,45,45,45,45,45,45,45,45,45,45,45,45,45,45,46,46,46,46,46,46,46,46,47,47,47,47,47,47,47,47,47,47,47,47,48,48,48,48,48,48,48,48,48,48,49,49,49,49,49,49,49,49,49,50,50,50,50,50,50,50,50,51,51,51,51,52,52,52,52,52,52,52,53,53,53,53,53,53,54,54,54,54,54,55,55,55,55,55,56,56,56,56,57,57,57,58,58,59,59,60];
unsucc = [3,4,5,6,7,9,10,11,13,14,16,17,20,22,24,26,30,34,43,4,7,8,12,14,15,19,21,23,25,5,6,8,10,12,13,15,16,18,19,20,21,22,23,25,27,28,31,32,43,48,6,7,8,10,12,13,14,15,16,17,18,19,20,21,22,23,25,27,28,34,37,38,43,48,7,8,9,11,12,14,15,16,19,20,21,23,24,25,29,32,36,44,8,10,12,13,15,16,18,19,20,21,22,23,25,27,28,31,32,35,37,43,48,9,10,11,12,13,14,15,16,17,18,19,20,22,24,26,30,31,33,34,35,42,43,51,10,12,13,14,15,16,17,18,19,20,21,22,23,25,27,28,31,32,34,35,37,38,43,48,11,12,14,15,16,18,19,20,21,23,24,25,27,28,29,32,36,44,45,12,13,14,15,16,17,18,19,20,21,22,23,24,25,26,27,28,29,31,32,34,35,37,38,43,44,45,48,57,13,14,16,17,20,22,23,24,25,26,30,31,32,33,34,35,42,43,44,45,46,51,52,14,15,16,18,19,20,21,22,23,24,25,26,27,28,29,30,31,32,33,35,36,41,43,44,45,46,48,50,51,15,16,17,18,19,20,21,22,23,25,27,28,30,31,32,33,34,35,37,43,48,51,57,16,17,20,21,22,23,24,25,26,30,31,32,33,34,35,38,39,42,43,44,45,46,51,52,55,17,18,19,21,22,23,24,25,26,27,29,30,31,33,34,35,36,37,38,39,40,41,42,46,49,50,18,19,20,21,22,23,24,25,26,27,28,29,30,31,32,33,35,36,37,41,43,44,45,46,48,50,51,54,19,20,21,22,23,24,25,26,29,30,31,32,33,34,35,36,38,39,41,42,43,44,45,46,47,50,51,52,55,20,21,22,23,24,25,26,28,30,31,32,33,34,35,38,39,42,43,44,45,46,51,52,55,21,22,23,24,25,26,27,28,29,30,31,33,34,35,36,37,38,39,40,41,42,46,49,50,59,22,23,24,25,26,27,28,29,30,31,32,33,34,35,37,42,43,44,45,46,47,48,51,52,55,57,23,24,25,27,28,29,30,32,34,36,37,38,44,45,24,26,28,30,31,33,34,35,38,39,42,43,48,51,57,25,27,28,30,31,32,33,34,35,37,38,39,40,42,43,48,49,51,53,57,26,27,28,29,30,31,33,34,35,36,37,38,39,41,42,43,48,49,51,53,54,57,58,27,28,29,30,31,32,33,34,35,36,37,38,39,40,42,43,44,45,47,48,49,51,53,54,57,28,29,30,31,32,33,34,35,36,38,39,41,42,43,44,45,46,47,48,50,51,52,55,57,29,30,31,32,33,34,35,36,37,38,39,40,41,42,43,44,45,46,47,49,50,51,52,53,54,55,56,58,59,30,31,32,33,34,35,37,38,39,40,42,43,44,45,46,48,49,51,52,53,55,57,61,31,32,34,35,36,37,38,41,43,44,45,46,48,57,32,34,36,37,38,43,44,45,46,48,50,57,33,34,35,36,37,38,39,40,41,42,43,46,48,49,50,51,52,53,54,57,58,59,34,35,36,37,38,41,43,44,45,46,48,50,57,35,36,37,41,43,44,45,46,48,50,51,54,36,37,38,42,43,44,45,46,47,48,50,57,37,38,39,40,42,43,44,45,46,47,48,49,51,52,53,55,57,61,38,39,41,42,43,44,45,46,47,48,49,50,51,52,55,56,57,59,41,42,43,44,45,46,47,48,50,51,52,54,55,57,41,42,43,44,45,46,47,48,50,51,52,54,55,57,41,42,43,44,45,46,47,48,49,50,51,52,53,54,55,56,57,58,59,60,42,43,44,45,46,47,48,49,50,51,52,53,54,55,56,57,59,61,43,44,45,46,48,50,51,53,54,57,58,44,45,46,47,49,50,53,56,59,46,47,48,49,50,51,52,53,54,56,57,58,59,60,46,47,48,49,50,51,52,53,54,56,57,58,59,60,47,48,49,51,53,54,57,58,48,49,50,51,52,53,54,55,57,58,59,61,49,50,51,52,53,54,55,56,58,59,50,51,52,53,54,55,57,58,61,51,52,53,54,55,57,58,61,53,56,57,59,53,54,56,57,58,59,60,54,55,56,57,59,61,55,56,57,59,61,56,57,58,59,60,57,58,59,61,58,59,60,59,61,60,61,61];

USEFUL_RES = [{},
	{1,2,3,5,6,7,9,10,11,13,14,15,16,19,20,22,24},
	{1,2,3,4,6,7,9,10,13,14,15,18,20,21,22,23,24},
	{1,3,4,6,7,8,9,10,11,12,13,14,15,16,18,19,20,22,23,24},
	{1,2,3,4,6,7,9,10,11,13,14,15,16,18,19,20,22,23,24},
	{1,2,3,4,6,7,8,9,10,11,12,13,14,15,16,18,19,20,22,23,24},
	{1,2,3,5,6,7,8,9,10,11,12,13,14,15,16,19,20,22,24},
	{1,2,3,4,6,7,8,9,10,11,12,13,14,15,16,17,18,19,20,21,22,23,24},
	{1,3,6,7,9,10,11,13,14,16,19,20,22,24},
	{2,3,4,6,8,9,10,11,12,13,14,15,16,18,19,20,22,23,24},
	{1,2,3,6,7,9,10,13,14,15,17,20,21,22,24},
	{1,2,3,4,6,7,9,10,11,13,14,15,16,17,18,19,20,21,22,23,24},
	{3,6,8,9,10,11,12,13,14,16,19,20,22,24},
	{1,2,3,4,6,7,8,9,10,11,12,13,14,15,16,17,18,19,20,21,22,23,24},
	{1,2,3,5,6,7,8,9,10,11,12,13,14,15,16,19,20,22,24},
	{1,3,4,6,7,9,10,13,14,15,18,20,22,23,24},
	{1,2,3,6,7,9,10,13,14,15,20,22,23,24},
	{2,3,4,6,9,10,13,14,15,18,20,21,22,23,24},
	{1,2,3,5,6,7,9,10,11,13,14,15,16,17,19,20,21,22,24},
	{2,5,15},
	{1,3,6,7,8,9,10,11,12,13,14,16,19,20,22,24},
	{2,3,4,5,6,9,10,11,13,14,15,18,19,20,22,23,24},
	{1,3,6,7,9,10,11,13,14,16,19,20,22,24},
	{1,2,3,5,6,7,8,9,10,11,12,13,14,15,16,17,19,20,21,22,23,24},
	{2,15},
	{3,6,9,10,13,14,20,22,24},
	{2,8,10,11,12,13,15,16,19},
	{1,2,3,6,7,8,9,10,11,12,13,14,15,16,17,19,20,21,22,24},
	{1,2,3,5,6,7,9,10,13,14,15,17,20,21,22,24},
	{1,2,3,6,7,9,10,13,14,15,17,20,21,22,23,24},
	{1,2,3,5,6,7,9,10,13,14,15,20,22,24},
	{1,2,3,6,7,9,10,13,14,15,17,20,21,22,24},
	{1,3,6,7,9,10,13,14,20,22,24},
	{3,6,9,10,13,14,20,22,24},
	{3,4,9,10,11,13,14,15,16,18,19,23},
	{2,3,6,9,10,13,14,15,17,20,21,22,24},
	{1,2,3,5,6,7,8,9,10,11,12,13,14,15,16,19,20,22,23,24},
	{10,11,16,19},
	{2,15,21},
	{3,6,9,10,11,13,14,19,20,22,24},
	{1,2,3,4,5,6,7,8,9,10,11,12,13,14,15,16,18,19,20,22,23,24},
	{1,2,3,6,7,8,9,10,11,12,13,14,15,16,19,20,22,23,24},
	{1,2,3,5,6,7,9,10,11,13,14,15,16,19,20,22,24},
	{2,4,10,11,13,15,16,17,18,19,21,23},
	{1,3,4,6,7,8,9,10,11,12,13,14,15,16,18,19,20,22,23,24},
	{1,2,3,5,6,7,9,10,13,14,15,20,22,24},
	{1,2,3,6,7,8,9,10,11,12,13,14,15,16,19,20,21,22,23,24},
	{1,3,6,7,8,9,10,11,12,13,14,16,19,20,22,24},
	{8,10,11,12,13,16,19},
	{1,2,3,5,6,7,8,9,10,11,12,13,14,15,16,19,20,21,22,23,24},
	{3,6,9,10,11,13,14,16,19,20,22,24},
	{1,3,4,6,7,8,9,10,11,12,13,14,15,16,18,19,20,22,23,24},
	{1,2,3,4,6,7,9,10,11,13,14,15,16,17,18,19,20,21,22,23,24},
	{2,3,6,8,9,10,11,12,13,14,15,16,19,20,21,22,24},
	{2,3,6,8,9,10,11,12,13,14,15,16,17,19,20,21,22,23,24},
	{1,2,3,4,6,7,9,10,13,14,15,18,20,21,22,23,24},
	{2,3,4,6,8,9,10,11,12,13,14,15,16,18,19,20,22,23,24},
	{3,4,9,10,11,13,14,15,16,18,19,23},
	{3,9,13,14,15,23},
	{1,2,3,4,6,7,9,10,11,13,14,15,16,17,18,19,20,21,22,23,24},
	{1,2,3,4,5,6,7,9,10,11,13,14,15,18,19,20,22,23,24},
	{}];

POTENTIAL_ACT = [{2,3,4,5,6,7,8,9,11,12,14,15,16,17,19,21,23,24,28,29,30,31,32,33,37,41,42,43,45,46,47,48,50,52,53,56,60,61},
	{2,3,5,6,7,8,10,11,12,14,15,17,18,19,20,22,24,25,27,28,29,30,31,32,36,37,39,41,42,43,44,46,47,50,53,54,55,56,57,60,61},
	{2,3,4,5,6,7,8,9,10,11,12,13,14,15,16,17,18,19,21,22,23,24,26,28,29,30,31,32,33,34,35,36,37,40,41,42,43,45,46,47,48,50,51,52,53,54,55,56,57,58,59,60,61},
	{3,4,5,6,8,10,12,14,16,18,22,35,41,44,45,52,53,56,57,58,60,61},
	{2,7,15,19,20,22,24,29,31,37,41,43,46,50,61},
	{2,3,4,5,6,7,8,9,10,11,12,13,14,15,16,17,18,19,21,22,23,24,26,28,29,30,31,32,33,34,36,37,40,41,42,43,45,46,47,48,50,51,52,53,54,55,56,57,60,61},
	{2,3,4,5,6,7,8,9,11,12,14,15,16,17,19,21,23,24,28,29,30,31,32,33,37,41,42,43,45,46,47,48,50,52,53,56,60,61},
	{4,6,7,8,10,13,14,15,21,24,27,28,37,41,42,45,47,48,49,50,52,54,55,57},
	{2,3,4,5,6,7,8,9,10,11,12,13,14,15,16,17,18,19,21,22,23,24,26,28,29,30,31,32,33,34,35,36,37,40,41,42,43,45,46,47,48,50,51,52,53,54,55,56,57,58,59,60,61},
	{2,3,4,5,6,7,8,9,10,11,12,13,14,15,16,17,18,19,21,22,23,24,26,27,28,29,30,31,32,33,34,35,36,37,38,40,41,42,43,44,45,46,47,48,49,50,51,52,53,54,55,56,57,58,60,61},
	{2,4,5,6,7,8,9,10,12,13,14,15,19,21,22,23,24,27,28,35,37,38,40,41,42,43,44,45,47,48,49,50,51,52,53,54,55,57,58,60,61},
	{4,6,7,8,10,13,14,15,21,24,27,28,37,41,42,45,47,48,49,50,52,54,55,57},
	{2,3,4,5,6,7,8,9,10,11,12,13,14,15,16,17,18,19,21,22,23,24,26,27,28,29,30,31,32,33,34,35,36,37,40,41,42,43,44,45,46,47,48,49,50,51,52,53,54,55,56,57,58,59,60,61},
	{2,3,4,5,6,7,8,9,10,11,12,13,14,15,16,17,18,19,21,22,23,24,26,28,29,30,31,32,33,34,35,36,37,40,41,42,43,45,46,47,48,50,51,52,53,54,55,56,57,58,59,60,61},
	{2,3,4,5,6,7,8,10,11,12,14,15,16,17,18,19,20,22,24,25,27,28,29,30,31,32,35,36,37,39,41,42,43,44,45,46,47,50,52,53,54,55,56,57,58,59,60,61},
	{2,4,5,6,7,8,9,10,12,13,14,15,19,21,23,24,27,28,35,37,38,41,42,43,44,45,47,48,49,50,51,52,53,54,55,57,58,60},
	{8,11,12,14,19,24,28,29,30,32,36,44,53,55,60},
	{3,4,5,6,8,10,12,14,16,18,22,35,41,44,45,52,53,56,57,58,60,61},
	{2,4,5,6,7,8,9,10,12,13,14,15,19,21,22,23,24,27,28,35,37,38,40,41,42,43,44,45,47,48,49,50,51,52,53,54,55,57,58,60,61},
	{2,3,4,5,6,7,8,9,10,11,12,13,14,15,16,17,18,19,21,22,23,24,26,28,29,30,31,32,33,34,36,37,40,41,42,43,45,46,47,48,50,51,52,53,54,55,56,57,60,61},
	{3,8,11,12,14,18,19,24,28,29,30,32,36,39,44,47,50,53,54,55,56,60},
	{2,3,4,5,6,7,8,9,10,11,12,13,14,15,16,17,18,19,21,22,23,24,26,28,29,30,31,32,33,34,36,37,40,41,42,43,45,46,47,48,50,51,52,53,54,55,56,57,60,61},
	{3,4,5,6,8,10,12,14,16,17,18,22,24,30,35,37,41,42,44,45,47,50,52,53,55,56,57,58,59,60,61},
	{2,3,4,5,6,7,8,9,10,11,12,13,14,15,16,17,18,19,21,22,23,24,26,28,29,30,31,32,33,34,36,37,40,41,42,43,45,46,47,48,50,51,52,53,54,55,56,57,60,61}];
